\ This file has been generated by DOcplex
\ ENCODING=ISO-8859-1
\Problem name: random_problem.lp

Minimize
 obj: - 202 x0 - 101 x1 + 654 x2 + 327 x3 - 224 x4 - 112 x5 + 84 x6 + 42 x7
      - 468 x8 - 234 x9 - 90 x10 - 45 x11 - 342 x12 - 171 x13 - 228 x14
      - 114 x15 - 256 x16 - 128 x17 + 394 x18 + 197 x19 + [ 4448 x0^2
      + 4448 x0*x1 + 96 x0*x2 + 48 x0*x3 + 3488 x0*x4 + 1744 x0*x5 - 320 x0*x6
      - 160 x0*x7 + 2176 x0*x8 + 1088 x0*x9 + 32 x0*x10 + 16 x0*x11
      + 2784 x0*x12 + 1392 x0*x13 + 1184 x0*x14 + 592 x0*x15 + 4480 x0*x16
      + 2240 x0*x17 + 320 x0*x18 + 160 x0*x19 + 1112 x1^2 + 48 x1*x2 + 24 x1*x3
      + 1744 x1*x4 + 872 x1*x5 - 160 x1*x6 - 80 x1*x7 + 1088 x1*x8 + 544 x1*x9
      + 16 x1*x10 + 8 x1*x11 + 1392 x1*x12 + 696 x1*x13 + 592 x1*x14
      + 296 x1*x15 + 2240 x1*x16 + 1120 x1*x17 + 160 x1*x18 + 80 x1*x19
      + 1680 x2^2 + 1680 x2*x3 + 1120 x2*x4 + 560 x2*x5 + 1216 x2*x6 + 608 x2*x7
      + 480 x2*x10 + 240 x2*x11 + 768 x2*x12 + 384 x2*x13 - 64 x2*x14
      - 32 x2*x15 + 1216 x2*x16 + 608 x2*x17 + 480 x2*x18 + 240 x2*x19
      + 420 x3^2 + 560 x3*x4 + 280 x3*x5 + 608 x3*x6 + 304 x3*x7 + 240 x3*x10
      + 120 x3*x11 + 384 x3*x12 + 192 x3*x13 - 32 x3*x14 - 16 x3*x15
      + 608 x3*x16 + 304 x3*x17 + 240 x3*x18 + 120 x3*x19 + 2928 x4^2
      + 2928 x4*x5 + 800 x4*x6 + 400 x4*x7 + 1440 x4*x8 + 720 x4*x9 + 416 x4*x10
      + 208 x4*x11 + 960 x4*x12 + 480 x4*x13 + 736 x4*x14 + 368 x4*x15
      + 4512 x4*x16 + 2256 x4*x17 + 1504 x4*x18 + 752 x4*x19 + 732 x5^2
      + 400 x5*x6 + 200 x5*x7 + 720 x5*x8 + 360 x5*x9 + 208 x5*x10 + 104 x5*x11
      + 480 x5*x12 + 240 x5*x13 + 368 x5*x14 + 184 x5*x15 + 2256 x5*x16
      + 1128 x5*x17 + 752 x5*x18 + 376 x5*x19 + 2880 x6^2 + 2880 x6*x7
      - 512 x6*x8 - 256 x6*x9 + 416 x6*x10 + 208 x6*x11 + 2016 x6*x12
      + 1008 x6*x13 + 1216 x6*x14 + 608 x6*x15 + 1024 x6*x16 + 512 x6*x17
      + 960 x6*x18 + 480 x6*x19 + 720 x7^2 - 256 x7*x8 - 128 x7*x9 + 208 x7*x10
      + 104 x7*x11 + 1008 x7*x12 + 504 x7*x13 + 608 x7*x14 + 304 x7*x15
      + 512 x7*x16 + 256 x7*x17 + 480 x7*x18 + 240 x7*x19 + 1200 x8^2
      + 1200 x8*x9 + 1504 x8*x12 + 752 x8*x13 - 128 x8*x14 - 64 x8*x15
      + 2336 x8*x16 + 1168 x8*x17 + 352 x8*x18 + 176 x8*x19 + 300 x9^2
      + 752 x9*x12 + 376 x9*x13 - 64 x9*x14 - 32 x9*x15 + 1168 x9*x16
      + 584 x9*x17 + 176 x9*x18 + 88 x9*x19 + 768 x10^2 + 768 x10*x11
      + 1472 x10*x12 + 736 x10*x13 + 896 x10*x14 + 448 x10*x15 + 736 x10*x16
      + 368 x10*x17 + 192 x10*x18 + 96 x10*x19 + 192 x11^2 + 736 x11*x12
      + 368 x11*x13 + 448 x11*x14 + 224 x11*x15 + 368 x11*x16 + 184 x11*x17
      + 96 x11*x18 + 48 x11*x19 + 3696 x12^2 + 3696 x12*x13 + 2048 x12*x14
      + 1024 x12*x15 + 352 x12*x16 + 176 x12*x17 - 608 x12*x18 - 304 x12*x19
      + 924 x13^2 + 1024 x13*x14 + 512 x13*x15 + 176 x13*x16 + 88 x13*x17
      - 304 x13*x18 - 152 x13*x19 + 1024 x14^2 + 1024 x14*x15 + 576 x14*x16
      + 288 x14*x17 + 928 x14*x18 + 464 x14*x19 + 256 x15^2 + 288 x15*x16
      + 144 x15*x17 + 464 x15*x18 + 232 x15*x19 + 6560 x16^2 + 6560 x16*x17
      + 2848 x16*x18 + 1424 x16*x19 + 1640 x17^2 + 1424 x17*x18 + 712 x17*x19
      + 2352 x18^2 + 2352 x18*x19 + 588 x19^2 ]/2
Subject To
 c0: 2 x0 + x1 + 2 x2 + x3 + 2 x4 + x5 + 2 x6 + x7 + 2 x8 + x9 + 2 x10 + x11
     + 2 x12 + x13 + 2 x14 + x15 + 2 x16 + x17 + 2 x18 + x19 = 3

Bounds
 0 <= x0 <= 1
 0 <= x1 <= 1
 0 <= x2 <= 1
 0 <= x3 <= 1
 0 <= x4 <= 1
 0 <= x5 <= 1
 0 <= x6 <= 1
 0 <= x7 <= 1
 0 <= x8 <= 1
 0 <= x9 <= 1
 0 <= x10 <= 1
 0 <= x11 <= 1
 0 <= x12 <= 1
 0 <= x13 <= 1
 0 <= x14 <= 1
 0 <= x15 <= 1
 0 <= x16 <= 1
 0 <= x17 <= 1
 0 <= x18 <= 1
 0 <= x19 <= 1

Binaries
 x0 x1 x2 x3 x4 x5 x6 x7 x8 x9 x10 x11 x12 x13 x14 x15 x16 x17 x18 x19
End
